(set-logic LIA)
(declare-datatypes ((inp.cmd_t 0))
	(((ADD) (NO_CMD) (REMOVE) (RESET) (UNSHEL) (UNSUPR) (c_ACK) (c_SHEL) (c_SUPR) )))
(synth-fun next ((snooze_timer Int) (inp.cmd inp.cmd_t)(snooze_timeout Int) ) Int
	((Start Int)  (Var Int) (EnumVar0 inp.cmd_t) (StartBool Bool))
	((Start Int (
				 0
				 1
				 2
				 3
				 4
				 6
				 (ite StartBool Start Start)))

	(Var Int (
			 snooze_timer
			 snooze_timeout
			 	(+ Var Var)						
			 	(- Var Var)						
			 	(* Var Var)))

(EnumVar0 inp.cmd_t (
	inp.cmd
ADD
NO_CMD
REMOVE
RESET
UNSHEL
UNSUPR
c_ACK
c_SHEL
c_SUPR
))

	 (StartBool Bool (
	 ( = EnumVar0 EnumVar0)
					 (> Var Var)						
					 (>= Var Var)						
					 (< Var Var)						
					 (<= Var Var)						
					 (= Var Var)						
					 (and StartBool StartBool)			
					 (or  StartBool StartBool)				
					 (not StartBool)))))

(constraint (= (next 0 REMOVE 1 ) 2))
(constraint (= (next 0 c_SUPR 1 ) 1))
(constraint (= (next 0 REMOVE 1 ) 2))
(constraint (= (next 0 c_SUPR 1 ) 1))
(constraint (= (next 0 REMOVE 1 ) 2))
(constraint (= (next 0 c_SUPR 1 ) 1))
(constraint (= (next 0 REMOVE 1 ) 2))
(constraint (= (next 0 c_SUPR 1 ) 1))
(constraint (= (next 0 REMOVE 1 ) 2))
(constraint (= (next 0 NO_CMD 1 ) 3))
(constraint (= (next 1 RESET 1 ) 0))
(constraint (= (next 0 REMOVE 1 ) 2))
(constraint (= (next 0 NO_CMD 1 ) 3))
(constraint (= (next 1 RESET 1 ) 0))
(constraint (= (next 0 REMOVE 1 ) 2))
(constraint (= (next 0 NO_CMD 1 ) 3))
(constraint (= (next 1 RESET 1 ) 0))
(constraint (= (next 0 REMOVE 1 ) 2))
(constraint (= (next 0 NO_CMD 1 ) 3))
(constraint (= (next 1 RESET 1 ) 0))
(constraint (= (next 0 c_SHEL 1 ) 6))
(constraint (= (next 0 NO_CMD 1 ) 3))
(constraint (= (next 1 RESET 1 ) 0))
(constraint (= (next 0 c_SHEL 1 ) 6))
(constraint (= (next 0 c_SHEL 1 ) 6))
(constraint (= (next 0 c_SHEL 1 ) 6))
(constraint (= (next 0 c_SHEL 1 ) 6))
(constraint (= (next 0 REMOVE 1 ) 2))
(constraint (= (next 0 NO_CMD 1 ) 3))
(constraint (= (next 0 NO_CMD 1 ) 3))
(constraint (= (next 1 NO_CMD 1 ) 3))
(constraint (= (next 0 c_ACK 1 ) 3))
(constraint (= (next 1 NO_CMD 1 ) 3))
(constraint (= (next 2 NO_CMD 1 ) 4))
(constraint (= (next 0 c_ACK 1 ) 3))
(constraint (= (next 1 c_SHEL 1 ) 6))
(constraint (= (next 0 c_ACK 1 ) 3))
(constraint (= (next 1 REMOVE 1 ) 2))
(constraint (= (next 0 c_ACK 1 ) 3))
(constraint (= (next 1 UNSUPR 1 ) 3))
(constraint (= (next 2 NO_CMD 1 ) 4))
(constraint (= (next 0 c_ACK 1 ) 3))
(constraint (= (next 1 RESET 1 ) 0))
(constraint (= (next 0 c_ACK 1 ) 3))
(constraint (= (next 1 c_SHEL 1 ) 6))
(constraint (= (next 0 c_ACK 1 ) 3))
(constraint (= (next 1 REMOVE 1 ) 2))
(constraint (= (next 0 c_ACK 1 ) 3))
(constraint (= (next 1 c_SUPR 1 ) 1))
(constraint (= (next 0 c_ACK 1 ) 3))
(constraint (= (next 1 RESET 1 ) 0))
(constraint (= (next 0 c_SUPR 1 ) 1))
(constraint (= (next 0 c_ACK 1 ) 3))
(constraint (= (next 1 NO_CMD 1 ) 3))
(constraint (= (next 2 c_SHEL 1 ) 4))
(constraint (= (next 0 c_SUPR 1 ) 1))
(constraint (= (next 0 c_ACK 1 ) 3))
(constraint (= (next 1 NO_CMD 1 ) 3))
(constraint (= (next 2 REMOVE 1 ) 4))
(constraint (= (next 0 c_SUPR 1 ) 1))
(constraint (= (next 0 c_ACK 1 ) 3))
(constraint (= (next 1 NO_CMD 1 ) 3))
(constraint (= (next 2 c_SUPR 1 ) 4))
(constraint (= (next 0 c_SUPR 1 ) 1))
(constraint (= (next 0 c_ACK 1 ) 3))
(constraint (= (next 1 NO_CMD 1 ) 3))
(constraint (= (next 2 RESET 1 ) 4))
(constraint (= (next 0 REMOVE 1 ) 2))
(constraint (= (next 0 RESET 1 ) 0))
(constraint (= (next 0 REMOVE 1 ) 2))
(constraint (= (next 0 RESET 1 ) 0))
(constraint (= (next 0 REMOVE 1 ) 2))
(constraint (= (next 0 RESET 1 ) 0))
(constraint (= (next 0 REMOVE 1 ) 2))
(constraint (= (next 0 RESET 1 ) 0))
(constraint (= (next 0 REMOVE 1 ) 2))
(constraint (= (next 0 RESET 1 ) 0))
(constraint (= (next 0 REMOVE 1 ) 2))
(constraint (= (next 0 RESET 1 ) 0))
(constraint (= (next 0 REMOVE 1 ) 2))
(constraint (= (next 0 RESET 1 ) 0))
(constraint (= (next 0 REMOVE 1 ) 2))
(constraint (= (next 0 RESET 1 ) 0))
(constraint (= (next 0 REMOVE 1 ) 2))
(constraint (= (next 0 RESET 1 ) 0))
(constraint (= (next 0 REMOVE 1 ) 2))
(constraint (= (next 0 NO_CMD 1 ) 3))
(constraint (= (next 1 NO_CMD 1 ) 3))
(constraint (= (next 2 NO_CMD 1 ) 4))
(constraint (= (next 0 c_SUPR 1 ) 1))
(constraint (= (next 0 NO_CMD 1 ) 3))
(constraint (= (next 0 RESET 1 ) 0))
(constraint (= (next 0 NO_CMD 1 ) 3))
(constraint (= (next 1 NO_CMD 1 ) 3))
(constraint (= (next 2 NO_CMD 1 ) 4))
(constraint (= (next 0 NO_CMD 1 ) 3))
(constraint (= (next 1 NO_CMD 1 ) 3))
(constraint (= (next 2 NO_CMD 1 ) 4))
(constraint (= (next 0 NO_CMD 1 ) 3))
(constraint (= (next 1 NO_CMD 1 ) 3))
(constraint (= (next 2 NO_CMD 1 ) 4))
(constraint (= (next 0 NO_CMD 1 ) 3))
(constraint (= (next 1 NO_CMD 1 ) 3))
(constraint (= (next 2 NO_CMD 1 ) 4))
(constraint (= (next 0 NO_CMD 1 ) 3))
(constraint (= (next 1 NO_CMD 1 ) 3))
(constraint (= (next 2 NO_CMD 1 ) 4))
(constraint (= (next 0 NO_CMD 1 ) 3))
(constraint (= (next 1 NO_CMD 1 ) 3))
(constraint (= (next 2 NO_CMD 1 ) 4))
(constraint (= (next 0 REMOVE 1 ) 2))
(constraint (= (next 0 RESET 1 ) 0))
(constraint (= (next 0 REMOVE 1 ) 2))
(constraint (= (next 0 c_SHEL 1 ) 6))
(constraint (= (next 0 REMOVE 1 ) 2))
(constraint (= (next 0 REMOVE 1 ) 2))
(constraint (= (next 0 c_SUPR 1 ) 1))
(constraint (= (next 0 c_SHEL 1 ) 6))
(constraint (= (next 0 c_SUPR 1 ) 1))
(constraint (= (next 0 REMOVE 1 ) 2))
(constraint (= (next 0 c_SUPR 1 ) 1))
(constraint (= (next 0 RESET 1 ) 0))
(constraint (= (next 0 c_SUPR 1 ) 1))
(constraint (= (next 0 c_SUPR 1 ) 1))
(constraint (= (next 0 c_ACK 1 ) 3))
(constraint (= (next 1 c_SUPR 1 ) 1))
(constraint (= (next 0 NO_CMD 1 ) 3))
(constraint (= (next 1 NO_CMD 1 ) 3))
(constraint (= (next 2 c_SHEL 1 ) 4))
(constraint (= (next 0 NO_CMD 1 ) 3))
(constraint (= (next 1 NO_CMD 1 ) 3))
(constraint (= (next 2 c_SHEL 1 ) 4))
(constraint (= (next 0 NO_CMD 1 ) 3))
(constraint (= (next 1 NO_CMD 1 ) 3))
(constraint (= (next 2 c_SHEL 1 ) 4))
(constraint (= (next 0 NO_CMD 1 ) 3))
(constraint (= (next 1 NO_CMD 1 ) 3))
(constraint (= (next 2 c_SHEL 1 ) 4))
(constraint (= (next 0 NO_CMD 1 ) 3))
(constraint (= (next 1 NO_CMD 1 ) 3))
(constraint (= (next 2 c_SHEL 1 ) 4))
(constraint (= (next 0 NO_CMD 1 ) 3))
(constraint (= (next 1 NO_CMD 1 ) 3))
(constraint (= (next 2 c_SHEL 1 ) 4))
(constraint (= (next 0 NO_CMD 1 ) 3))
(constraint (= (next 1 NO_CMD 1 ) 3))
(constraint (= (next 2 c_SHEL 1 ) 4))
(constraint (= (next 0 NO_CMD 1 ) 3))
(constraint (= (next 1 NO_CMD 1 ) 3))
(constraint (= (next 2 c_SHEL 1 ) 4))
(constraint (= (next 0 NO_CMD 1 ) 3))
(constraint (= (next 1 NO_CMD 1 ) 3))
(constraint (= (next 2 c_SHEL 1 ) 4))
(constraint (= (next 0 NO_CMD 1 ) 3))
(constraint (= (next 1 NO_CMD 1 ) 3))
(constraint (= (next 2 NO_CMD 1 ) 4))
(constraint (= (next 0 c_SHEL 1 ) 6))
(constraint (= (next 0 RESET 1 ) 0))
(constraint (= (next 0 c_SHEL 1 ) 6))
(constraint (= (next 0 c_SUPR 1 ) 1))
(constraint (= (next 0 c_SHEL 1 ) 6))
(constraint (= (next 0 REMOVE 1 ) 2))
(constraint (= (next 0 NO_CMD 1 ) 3))
(constraint (= (next 1 NO_CMD 1 ) 3))
(constraint (= (next 2 c_SHEL 1 ) 4))
(constraint (= (next 0 NO_CMD 1 ) 3))
(constraint (= (next 1 NO_CMD 1 ) 3))
(constraint (= (next 2 c_SHEL 1 ) 4))
(constraint (= (next 0 NO_CMD 1 ) 3))
(constraint (= (next 1 NO_CMD 1 ) 3))
(constraint (= (next 2 c_SHEL 1 ) 4))
(constraint (= (next 0 REMOVE 1 ) 2))
(constraint (= (next 0 c_SUPR 1 ) 1))
(constraint (= (next 0 NO_CMD 1 ) 3))
(constraint (= (next 1 c_SHEL 1 ) 6))
(constraint (= (next 0 NO_CMD 1 ) 3))

(check-synth)
